webassembly/ejemplos_dzn/folder7_json_75.dzn
TERM = { '.', 's(2)', 'in_1', 'local_1', 'in_2', 'in_3', 's(1)', 's(0)', 's(3)', 'in_0'};
null = '.';
s = 7;
n = 9;
ndeps = 3;
max_registers_sz = 4;
NR = 1;
registers = [|'local_1', 's(2)'|];
dependencies = [|'i32.load8_s_0', 'call[function_index(0)]_6', |'i32.load16_s_1', 'call[function_index(0)]_6', |'i32.load8_u_2', 'call[function_index(0)]_6'|];
GET_ENUM = { GET1, GET2, GET3, GET4, GET5};
SET_ENUM = { SET1, SET2, SET3, SET4, SET5};
TEE_ENUM = { TEE1, TEE2, TEE3, TEE4, TEE5};
N = 4;
OP = { 'call[function_index(0)]_6', 'i32.load8_s_0', 'i32.load16_s_1', 'i32.load8_u_2' };
in_ops = [3, 1, 1, 1 ];
out_ops = [1, 1, 1, 1 ];
in1 = ['in_1', 'in_0', 's(0)', 's(1)' ];
in2 = ['in_2', '.', '.', '.' ];
in3 = ['in_3', '.', '.', '.' ];
out1 = ['s(3)', 's(0)', 's(1)', 's(2)' ];
out2 = ['.', '.', '.', '.' ];
out3 = ['.', '.', '.', '.' ];
comm = [false, false, false, false ];
gas = [1, 1, 1, 1 ];
sz = [1, 1, 1, 1 ];
stor = [true, false, false, false ];
lb = [ 1, 1, 1, 1 ];
ub = [ 7, 7, 7, 7 ];
startstack = [ 'in_0', 'in_1', 'in_2', 'in_3', null, null, null, null, null ];
endstack = [ 's(3)', null, null, null, null, null, null, null, null ];
