webassembly/ejemplos_results/7/folder7_json_75.txt
value = 7;
fgas = [1, 1, 1, 1, 1, 1, 1];
fsize = [1, 1, 1, 1, 1, 1, 1];
states = 
[|   in_0, in_1, in_2, in_3, '.', '.', '.', '.', '.'
 |   in_0, in_1, in_2, in_3, '.', '.', '.', '.', '.'
 | 's(0)', in_1, in_2, in_3, '.', '.', '.', '.', '.'
 | 's(0)', in_1, in_2, in_3, '.', '.', '.', '.', '.'
 | 's(1)', in_1, in_2, in_3, '.', '.', '.', '.', '.'
 | 's(2)', in_1, in_2, in_3, '.', '.', '.', '.', '.'
 |   in_1, in_2, in_3,  '.', '.', '.', '.', '.', '.'
 | 's(3)',  '.',  '.',  '.', '.', '.', '.', '.', '.'
 |];
register_states = 
[| local_1, '.', '.', '.', '.'
 |    in_0, '.', '.', '.', '.'
 |    in_0, '.', '.', '.', '.'
 |  's(0)', '.', '.', '.', '.'
 |  's(0)', '.', '.', '.', '.'
 |  's(0)', '.', '.', '.', '.'
 |  's(2)', '.', '.', '.', '.'
 |  's(2)', '.', '.', '.', '.'
 |];
program = [TEE(TEE1), O('i32.load8_s_0'), TEE(TEE1), O('i32.load16_s_1'), O('i32.load8_u_2'), S(SET1), O('call[function_index(0)]_6')];
% time elapsed: 0.09 s
----------
value = 6;
fgas = [1, 1, 1, 1, 1, 2, 0];
fsize = [1, 1, 1, 1, 1, 1, 1];
states = 
[|   in_0,   in_1, in_2, in_3, '.', '.', '.', '.', '.'
 | 's(0)',   in_1, in_2, in_3, '.', '.', '.', '.', '.'
 | 's(1)',   in_1, in_2, in_3, '.', '.', '.', '.', '.'
 | 's(2)',   in_1, in_2, in_3, '.', '.', '.', '.', '.'
 |   in_1,   in_2, in_3,  '.', '.', '.', '.', '.', '.'
 | 's(3)', 's(3)',  '.',  '.', '.', '.', '.', '.', '.'
 | 's(3)',    '.',  '.',  '.', '.', '.', '.', '.', '.'
 | 's(3)',    '.',  '.',  '.', '.', '.', '.', '.', '.'
 |];
register_states = 
[| local_1, '.', '.', '.', '.'
 | local_1, '.', '.', '.', '.'
 | local_1, '.', '.', '.', '.'
 | local_1, '.', '.', '.', '.'
 |  's(2)', '.', '.', '.', '.'
 |  's(2)', '.', '.', '.', '.'
 |  's(2)', '.', '.', '.', '.'
 |  's(2)', '.', '.', '.', '.'
 |];
program = [O('i32.load8_s_0'), O('i32.load16_s_1'), O('i32.load8_u_2'), S(SET1), O('call[function_index(0)]_6'), POP, NOP];
% time elapsed: 0.09 s
----------
value = 5;
fgas = [1, 1, 1, 1, 1, 0, 0];
fsize = [1, 1, 1, 1, 1, 1, 1];
states = 
[|   in_0, in_1, in_2, in_3, '.', '.', '.', '.', '.'
 | 's(0)', in_1, in_2, in_3, '.', '.', '.', '.', '.'
 | 's(1)', in_1, in_2, in_3, '.', '.', '.', '.', '.'
 | 's(2)', in_1, in_2, in_3, '.', '.', '.', '.', '.'
 |   in_1, in_2, in_3,  '.', '.', '.', '.', '.', '.'
 | 's(3)',  '.',  '.',  '.', '.', '.', '.', '.', '.'
 | 's(3)',  '.',  '.',  '.', '.', '.', '.', '.', '.'
 | 's(3)',  '.',  '.',  '.', '.', '.', '.', '.', '.'
 |];
register_states = 
[| local_1, '.', '.', '.', '.'
 | local_1, '.', '.', '.', '.'
 | local_1, '.', '.', '.', '.'
 | local_1, '.', '.', '.', '.'
 |  's(2)', '.', '.', '.', '.'
 |  's(2)', '.', '.', '.', '.'
 |  's(2)', '.', '.', '.', '.'
 |  's(2)', '.', '.', '.', '.'
 |];
program = [O('i32.load8_s_0'), O('i32.load16_s_1'), O('i32.load8_u_2'), S(SET1), O('call[function_index(0)]_6'), NOP, NOP];
% time elapsed: 0.09 s
----------
==========
% time elapsed: 0.09 s
% [value > 4]
